NAME : berlin52-R-5-0-b.13759.tour
COMMENT : Length = 13759
COMMENT : Found by LKH-3 [Keld Helsgaun] Tue Jul 30 13:14:23 2024
TYPE : TOUR
DIMENSION : 52
TOUR_SECTION
1
18
9
43
34
38
6
12
11
26
14
13
52
51
33
10
24
48
49
20
23
31
22
8
15
40
37
16
50
29
47
27
28
25
44
39
45
41
3
21
30
42
2
7
17
19
32
36
35
5
4
46
-1
EOF
